61419
35,132,215,270,395,462,490,696,852,960,1000,1084,1096,1149,1294,1415,1513,1549,1660,1692,2000,2240,2369,2504,2583,2647,2698,2800,2893,2906,3120,3126,3287,3326,3483,3488,3803,3884,3906,3910,3962,4095,4139,4185,4403,4406,4422,4513,4544,4580,4607,4920,4949,4980,5093,5110,5238,5315,5347,5501,5721,5826,5831,5843,5848,5953,6001,6146,6243,6246,6345,6422,6444,6461,6573,6614,6796,6864,6869,6947,7042,7122,7219,7415,7424,7573,7606,7723,7745,7904,7929,7942,7947,8007,8218,8241,8248,8302,8337,8397,8501,8509,8518,8745,8751,8769,8921,9027,9229,9280,9302,9308,9375,9411,9421,9595,9656,9918,9994
